p cnf 424 1031
1 0
-2 0
-3 0
-4 0
-5 0
-6 0
-7 0
-8 0
-9 0
-10 0
-11 0
-12 0
-13 0
-14 0
-15 0
-16 0
-17 0
-18 0
-19 0
-20 0
-21 0
-22 0
-23 0
1 -24 0
24 -1 0
25 26 0
27 26 0
28 26 0
-25 -27 -28 -26 0
-2 26 -29 0
2 -26 -29 0
29 -26 -2 0
2 26 29 0
-29 0
27 30 0
28 30 0
-27 -28 -30 0
-31 30 -32 0
31 -30 -32 0
32 -30 -31 0
31 30 32 0
-32 0
-3 30 -33 0
3 -30 -33 0
33 -30 -3 0
3 30 33 0
-33 0
25 34 0
27 34 0
28 34 0
35 34 0
36 34 0
-37 0
-4 34 -38 0
4 -34 -38 0
38 -34 -4 0
4 34 38 0
-38 0
25 39 0
27 39 0
28 39 0
36 39 0
-40 0
-41 39 -42 0
41 -39 -42 0
42 -39 -41 0
41 39 42 0
-42 0
43 44 0
45 44 0
46 44 0
47 44 0
48 44 0
49 44 0
-50 0
-5 44 -51 0
5 -44 -51 0
51 -44 -5 0
5 44 51 0
-51 0
45 52 0
46 52 0
47 52 0
48 52 0
49 52 0
-53 0
-54 52 -55 0
54 -52 -55 0
55 -52 -54 0
54 52 55 0
-55 0
46 56 0
47 56 0
48 56 0
49 56 0
-57 0
-58 56 -59 0
58 -56 -59 0
59 -56 -58 0
58 56 59 0
-59 0
-60 56 -61 0
60 -56 -61 0
61 -56 -60 0
60 56 61 0
-61 0
48 62 0
49 62 0
46 62 0
47 62 0
-63 0
-64 62 -65 0
64 -62 -65 0
65 -62 -64 0
64 62 65 0
-65 0
-6 56 -66 0
6 -56 -66 0
66 -56 -6 0
6 56 66 0
-66 0
67 68 0
69 68 0
70 68 0
71 68 0
72 68 0
73 68 0
-74 0
-7 68 -75 0
7 -68 -75 0
75 -68 -7 0
7 68 75 0
-75 0
69 76 0
70 76 0
71 76 0
72 76 0
73 76 0
-77 0
-78 76 -79 0
78 -76 -79 0
79 -76 -78 0
78 76 79 0
-79 0
70 80 0
71 80 0
72 80 0
73 80 0
-81 0
-82 80 -83 0
82 -80 -83 0
83 -80 -82 0
82 80 83 0
-83 0
-84 80 -85 0
84 -80 -85 0
85 -80 -84 0
84 80 85 0
-85 0
-86 80 -87 0
86 -80 -87 0
87 -80 -86 0
86 80 87 0
-87 0
-88 80 -89 0
88 -80 -89 0
89 -80 -88 0
88 80 89 0
-89 0
24 90 0
91 90 0
92 90 0
93 90 0
-94 0
-8 90 -95 0
8 -90 -95 0
95 -90 -8 0
8 90 95 0
-95 0
24 96 0
92 96 0
93 96 0
-24 -92 -93 -96 0
-9 96 -97 0
9 -96 -97 0
97 -96 -9 0
9 96 97 0
-97 0
24 98 0
93 98 0
-24 -93 -98 0
-99 98 -100 0
99 -98 -100 0
100 -98 -99 0
99 98 100 0
-100 0
101 102 0
103 102 0
104 102 0
105 102 0
106 102 0
107 102 0
-108 0
-10 102 -109 0
10 -102 -109 0
109 -102 -10 0
10 102 109 0
-109 0
103 110 0
104 110 0
105 110 0
106 110 0
107 110 0
-111 0
-112 110 -113 0
112 -110 -113 0
113 -110 -112 0
112 110 113 0
-113 0
104 114 0
105 114 0
106 114 0
107 114 0
-115 0
-116 114 -117 0
116 -114 -117 0
117 -114 -116 0
116 114 117 0
-117 0
105 118 0
106 118 0
107 118 0
-105 -106 -107 -118 0
-119 118 -120 0
119 -118 -120 0
120 -118 -119 0
119 118 120 0
-120 0
-121 118 -122 0
121 -118 -122 0
122 -118 -121 0
121 118 122 0
-122 0
-123 118 -124 0
123 -118 -124 0
124 -118 -123 0
123 118 124 0
-124 0
24 125 0
92 125 0
93 125 0
126 125 0
127 125 0
-128 0
-11 125 -129 0
11 -125 -129 0
129 -125 -11 0
11 125 129 0
-129 0
24 130 0
92 130 0
93 130 0
127 130 0
-131 0
-132 130 -133 0
132 -130 -133 0
133 -130 -132 0
132 130 133 0
-133 0
104 134 0
105 134 0
106 134 0
107 134 0
135 134 0
136 134 0
-137 0
-12 134 -138 0
12 -134 -138 0
138 -134 -12 0
12 134 138 0
-138 0
104 139 0
105 139 0
106 139 0
107 139 0
136 139 0
-140 0
-141 139 -142 0
141 -139 -142 0
142 -139 -141 0
141 139 142 0
-142 0
70 143 0
71 143 0
72 143 0
73 143 0
144 143 0
145 143 0
146 143 0
147 143 0
-148 0
-13 143 -149 0
13 -143 -149 0
149 -143 -13 0
13 143 149 0
-149 0
70 150 0
71 150 0
72 150 0
73 150 0
145 150 0
146 150 0
147 150 0
-151 0
-152 150 -153 0
152 -150 -153 0
153 -150 -152 0
152 150 153 0
-153 0
70 154 0
71 154 0
72 154 0
73 154 0
146 154 0
147 154 0
-155 0
-156 154 -157 0
156 -154 -157 0
157 -154 -156 0
156 154 157 0
-157 0
70 158 0
71 158 0
72 158 0
73 158 0
147 158 0
-159 0
-160 158 -161 0
160 -158 -161 0
161 -158 -160 0
160 158 161 0
-161 0
27 162 0
28 162 0
163 162 0
164 162 0
165 162 0
-166 0
-14 162 -167 0
14 -162 -167 0
167 -162 -14 0
14 162 167 0
-167 0
27 168 0
28 168 0
164 168 0
165 168 0
-169 0
-170 168 -171 0
170 -168 -171 0
171 -168 -170 0
170 168 171 0
-171 0
27 172 0
28 172 0
165 172 0
-27 -28 -165 -172 0
-173 172 -174 0
173 -172 -174 0
174 -172 -173 0
173 172 174 0
-174 0
105 175 0
106 175 0
107 175 0
176 175 0
177 175 0
-178 0
-15 175 -179 0
15 -175 -179 0
179 -175 -15 0
15 175 179 0
-179 0
105 180 0
106 180 0
107 180 0
177 180 0
-181 0
-182 180 -183 0
182 -180 -183 0
183 -180 -182 0
182 180 183 0
-183 0
25 184 0
27 184 0
28 184 0
36 184 0
185 184 0
-186 0
-16 184 -187 0
16 -184 -187 0
187 -184 -16 0
16 184 187 0
-187 0
188 189 0
190 189 0
191 189 0
192 189 0
193 189 0
194 189 0
195 189 0
-196 0
-17 189 -197 0
17 -189 -197 0
197 -189 -17 0
17 189 197 0
-197 0
190 198 0
191 198 0
192 198 0
193 198 0
194 198 0
195 198 0
-199 0
-200 198 -201 0
200 -198 -201 0
201 -198 -200 0
200 198 201 0
-201 0
191 202 0
192 202 0
193 202 0
194 202 0
195 202 0
-203 0
-204 202 -205 0
204 -202 -205 0
205 -202 -204 0
204 202 205 0
-205 0
192 206 0
193 206 0
194 206 0
195 206 0
-207 0
-208 206 -209 0
208 -206 -209 0
209 -206 -208 0
208 206 209 0
-209 0
193 210 0
194 210 0
195 210 0
-193 -194 -195 -210 0
-211 210 -212 0
211 -210 -212 0
212 -210 -211 0
211 210 212 0
-212 0
-213 210 -214 0
213 -210 -214 0
214 -210 -213 0
213 210 214 0
-214 0
-215 210 -216 0
215 -210 -216 0
216 -210 -215 0
215 210 216 0
-216 0
46 217 0
47 217 0
48 217 0
49 217 0
218 217 0
219 217 0
220 217 0
221 217 0
-222 0
-18 217 -223 0
18 -217 -223 0
223 -217 -18 0
18 217 223 0
-223 0
46 224 0
47 224 0
48 224 0
49 224 0
219 224 0
220 224 0
221 224 0
-225 0
-226 224 -227 0
226 -224 -227 0
227 -224 -226 0
226 224 227 0
-227 0
46 228 0
47 228 0
48 228 0
49 228 0
220 228 0
221 228 0
-229 0
-230 228 -231 0
230 -228 -231 0
231 -228 -230 0
230 228 231 0
-231 0
46 232 0
47 232 0
48 232 0
49 232 0
221 232 0
-233 0
-234 232 -235 0
234 -232 -235 0
235 -232 -234 0
234 232 235 0
-235 0
46 236 0
47 236 0
48 236 0
49 236 0
237 236 0
238 236 0
-239 0
-19 236 -240 0
19 -236 -240 0
240 -236 -19 0
19 236 240 0
-240 0
46 241 0
47 241 0
48 241 0
49 241 0
238 241 0
-242 0
-243 241 -244 0
243 -241 -244 0
244 -241 -243 0
243 241 244 0
-244 0
105 245 0
106 245 0
107 245 0
246 245 0
247 245 0
248 245 0
-249 0
-20 245 -250 0
20 -245 -250 0
250 -245 -20 0
20 245 250 0
-250 0
105 251 0
106 251 0
107 251 0
247 251 0
248 251 0
-252 0
-253 251 -254 0
253 -251 -254 0
254 -251 -253 0
253 251 254 0
-254 0
105 255 0
106 255 0
107 255 0
248 255 0
-256 0
-257 255 -258 0
257 -255 -258 0
258 -255 -257 0
257 255 258 0
-258 0
259 260 0
261 260 0
262 260 0
263 260 0
-264 0
-21 260 -265 0
21 -260 -265 0
265 -260 -21 0
21 260 265 0
-265 0
261 266 0
262 266 0
263 266 0
-261 -262 -263 -266 0
-267 266 -268 0
267 -266 -268 0
268 -266 -267 0
267 266 268 0
-268 0
262 269 0
263 269 0
-262 -263 -269 0
-22 269 -270 0
22 -269 -270 0
270 -269 -22 0
22 269 270 0
-270 0
-271 269 -272 0
271 -269 -272 0
272 -269 -271 0
271 269 272 0
-272 0
273 274 0
275 274 0
276 274 0
277 274 0
-278 0
-23 274 -279 0
23 -274 -279 0
279 -274 -23 0
23 274 279 0
-279 0
-280 274 -281 0
280 -274 -281 0
281 -274 -280 0
280 274 281 0
-281 0
-282 274 -283 0
282 -274 -283 0
283 -274 -282 0
282 274 283 0
-283 0
-284 274 -285 0
284 -274 -285 0
285 -274 -284 0
284 274 285 0
-285 0
-24 286 -287 0
24 -286 -287 0
-24 -286 287 0
24 286 287 0
-287 0
-25 288 -289 0
25 -288 -289 0
-25 -288 289 0
25 288 289 0
-289 0
-27 290 -291 0
27 -290 -291 0
-27 -290 291 0
27 290 291 0
-291 0
-28 292 -293 0
28 -292 -293 0
-28 -292 293 0
28 292 293 0
-293 0
-35 294 -295 0
35 -294 -295 0
-35 -294 295 0
35 294 295 0
-295 0
-36 296 -297 0
36 -296 -297 0
-36 -296 297 0
36 296 297 0
-297 0
-43 298 -299 0
43 -298 -299 0
-43 -298 299 0
43 298 299 0
-299 0
-45 300 -301 0
45 -300 -301 0
-45 -300 301 0
45 300 301 0
-301 0
-46 302 -303 0
46 -302 -303 0
-46 -302 303 0
46 302 303 0
-303 0
-47 304 -305 0
47 -304 -305 0
-47 -304 305 0
47 304 305 0
-305 0
-48 306 -307 0
48 -306 -307 0
-48 -306 307 0
48 306 307 0
-307 0
-49 308 -309 0
49 -308 -309 0
-49 -308 309 0
49 308 309 0
-309 0
-67 310 -311 0
67 -310 -311 0
-67 -310 311 0
67 310 311 0
-311 0
-69 312 -313 0
69 -312 -313 0
-69 -312 313 0
69 312 313 0
-313 0
-70 314 -315 0
70 -314 -315 0
-70 -314 315 0
70 314 315 0
-315 0
-71 316 -317 0
71 -316 -317 0
-71 -316 317 0
71 316 317 0
-317 0
-72 318 -319 0
72 -318 -319 0
-72 -318 319 0
72 318 319 0
-319 0
-73 320 -321 0
73 -320 -321 0
-73 -320 321 0
73 320 321 0
-321 0
-91 322 -323 0
91 -322 -323 0
-91 -322 323 0
91 322 323 0
-323 0
-92 324 -325 0
92 -324 -325 0
-92 -324 325 0
92 324 325 0
-325 0
-93 326 -327 0
93 -326 -327 0
-93 -326 327 0
93 326 327 0
-327 0
-101 328 -329 0
101 -328 -329 0
-101 -328 329 0
101 328 329 0
-329 0
-103 330 -331 0
103 -330 -331 0
-103 -330 331 0
103 330 331 0
-331 0
-104 332 -333 0
104 -332 -333 0
-104 -332 333 0
104 332 333 0
-333 0
-105 334 -335 0
105 -334 -335 0
-105 -334 335 0
105 334 335 0
-335 0
-106 336 -337 0
106 -336 -337 0
-106 -336 337 0
106 336 337 0
-337 0
-107 338 -339 0
107 -338 -339 0
-107 -338 339 0
107 338 339 0
-339 0
-126 340 -341 0
126 -340 -341 0
-126 -340 341 0
126 340 341 0
-341 0
-127 342 -343 0
127 -342 -343 0
-127 -342 343 0
127 342 343 0
-343 0
-135 344 -345 0
135 -344 -345 0
-135 -344 345 0
135 344 345 0
-345 0
-136 346 -347 0
136 -346 -347 0
-136 -346 347 0
136 346 347 0
-347 0
-144 348 -349 0
144 -348 -349 0
-144 -348 349 0
144 348 349 0
-349 0
-145 350 -351 0
145 -350 -351 0
-145 -350 351 0
145 350 351 0
-351 0
-146 352 -353 0
146 -352 -353 0
-146 -352 353 0
146 352 353 0
-353 0
-147 354 -355 0
147 -354 -355 0
-147 -354 355 0
147 354 355 0
-355 0
-163 356 -357 0
163 -356 -357 0
-163 -356 357 0
163 356 357 0
-357 0
-164 358 -359 0
164 -358 -359 0
-164 -358 359 0
164 358 359 0
-359 0
-165 360 -361 0
165 -360 -361 0
-165 -360 361 0
165 360 361 0
-361 0
-176 362 -363 0
176 -362 -363 0
-176 -362 363 0
176 362 363 0
-363 0
-177 364 -365 0
177 -364 -365 0
-177 -364 365 0
177 364 365 0
-365 0
-185 366 -367 0
185 -366 -367 0
-185 -366 367 0
185 366 367 0
-367 0
-188 368 -369 0
188 -368 -369 0
-188 -368 369 0
188 368 369 0
-369 0
-190 370 -371 0
190 -370 -371 0
-190 -370 371 0
190 370 371 0
-371 0
-191 372 -373 0
191 -372 -373 0
-191 -372 373 0
191 372 373 0
-373 0
-192 374 -375 0
192 -374 -375 0
-192 -374 375 0
192 374 375 0
-375 0
-193 376 -377 0
193 -376 -377 0
-193 -376 377 0
193 376 377 0
-377 0
-194 378 -379 0
194 -378 -379 0
-194 -378 379 0
194 378 379 0
-379 0
-195 380 -381 0
195 -380 -381 0
-195 -380 381 0
195 380 381 0
-381 0
-218 382 -383 0
218 -382 -383 0
-218 -382 383 0
218 382 383 0
-383 0
-219 384 -385 0
219 -384 -385 0
-219 -384 385 0
219 384 385 0
-385 0
-220 386 -387 0
220 -386 -387 0
-220 -386 387 0
220 386 387 0
-387 0
-221 388 -389 0
221 -388 -389 0
-221 -388 389 0
221 388 389 0
-389 0
-237 390 -391 0
237 -390 -391 0
-237 -390 391 0
237 390 391 0
-391 0
-238 392 -393 0
238 -392 -393 0
-238 -392 393 0
238 392 393 0
-393 0
-246 394 -395 0
246 -394 -395 0
-246 -394 395 0
246 394 395 0
-395 0
-247 396 -397 0
247 -396 -397 0
-247 -396 397 0
247 396 397 0
-397 0
-248 398 -399 0
248 -398 -399 0
-248 -398 399 0
248 398 399 0
-399 0
-259 400 -401 0
259 -400 -401 0
-259 -400 401 0
259 400 401 0
-401 0
-261 402 -403 0
261 -402 -403 0
-261 -402 403 0
261 402 403 0
-403 0
-262 404 -405 0
262 -404 -405 0
-262 -404 405 0
262 404 405 0
-405 0
-263 406 -407 0
263 -406 -407 0
-263 -406 407 0
263 406 407 0
-407 0
-273 408 -409 0
273 -408 -409 0
-273 -408 409 0
273 408 409 0
-409 0
-275 410 -411 0
275 -410 -411 0
-275 -410 411 0
275 410 411 0
-411 0
-276 412 -413 0
276 -412 -413 0
-276 -412 413 0
276 412 413 0
-413 0
-277 414 -415 0
277 -414 -415 0
-277 -414 415 0
277 414 415 0
-415 0
-416 -286 0
288 -416 0
290 -416 0
-416 -292 0
-416 -294 0
296 -416 0
-416 -298 0
-416 -300 0
302 -416 0
-416 -304 0
-416 -306 0
308 -416 0
310 -416 0
-416 -312 0
-416 -314 0
-416 -316 0
-416 -318 0
320 -416 0
-416 -322 0
-416 -324 0
326 -416 0
328 -416 0
-416 -330 0
-416 -332 0
334 -416 0
-416 -336 0
338 -416 0
340 -416 0
342 -416 0
-416 -344 0
346 -416 0
-416 -348 0
-416 -350 0
-416 -352 0
354 -416 0
356 -416 0
358 -416 0
-416 -360 0
-416 -362 0
364 -416 0
366 -416 0
-416 -368 0
-416 -370 0
-416 -372 0
374 -416 0
376 -416 0
-416 -378 0
-416 -380 0
-416 -382 0
-416 -384 0
-416 -386 0
388 -416 0
390 -416 0
-416 -392 0
394 -416 0
-416 -396 0
-416 -398 0
400 -416 0
-416 -402 0
-416 -404 0
406 -416 0
408 -416 0
410 -416 0
412 -416 0
-416 -414 0
416 0
-417 0
-418 0
-419 0
-420 0
-421 0
-422 0
-423 0
-424 0
